Route #1:
Route #2: 19 21
Route #3: 5 20
Route #4: 29
Route #5: 9 18
Route #6: 10 15
Route #7: 24 6 17 7
Route #8: 27 30
Route #9: 31
Route #10: 2 11 28
Route #11: 16
Route #12: 25 22 3 8 23 1
Route #13: 13
Route #14: 4
Route #15: 12 26
Route #16: 14

Cost: 2194.565310014018
